language ESSENCE' 1.0

letting jobs = 102
letting horizon = 821
letting resourcesRenew = 2
letting resourcesNonrenew = 2
letting resourceLimits = [12, 13, 508, 530]
letting successors = [[2, 3, 4, 5, 6, 7, 8, 9, 11, 12, 13, 16], [28, 26, 23, 22, 19, 17, 15, 14, 10], [28, 26, 23, 22, 21, 19, 17, 10], [33, 32, 28, 26, 23, 22, 21, 20, 18, 14], [34, 33, 32, 31, 28, 27, 25, 24, 23, 22, 20, 19], [35, 33, 31, 26, 23, 20, 18, 17], [39, 34, 33, 31, 22, 21, 19, 18], [34, 31, 22, 21, 20, 19, 18], [39, 38, 34, 33, 32, 31, 28, 27, 26, 22], [36, 35, 33, 31, 20, 18], [36, 35, 33, 31, 29, 27, 25, 20], [36, 35, 33, 18], [35, 33, 18], [42, 40, 38, 35, 34, 29, 27], [47, 45, 42, 40, 38, 36, 33, 29], [45, 42, 40, 38, 37, 36, 35, 29], [40, 38, 37, 36, 34, 32, 29], [42, 40, 38, 29, 27, 25], [48, 46, 45, 42, 36, 35, 30], [48, 47, 46, 45, 42, 39, 30], [40, 38, 37, 29, 25], [45, 42, 40, 37, 29], [45, 42, 40, 37, 29], [45, 37, 29], [52, 50, 48, 47, 46, 45, 44, 43, 41], [52, 48, 45, 43, 42, 37], [52, 46, 45, 43, 37], [50, 48, 46, 45, 36], [52, 50, 48, 46, 44, 43, 41], [38, 37], [48, 45, 37], [59, 57, 55, 52, 49, 47, 46, 44], [37], [59, 57, 49, 48, 45, 44, 43], [59, 55, 50, 47, 44, 43], [57, 44, 43, 41], [50, 44, 41], [57, 55, 52, 49, 44, 43], [59, 55, 50, 44, 43], [57, 48, 41], [61, 59, 55, 54, 53, 51, 49], [64, 61, 58, 56, 51, 50], [71, 64, 62, 61, 58, 56, 54, 53], [64, 61, 56, 53, 51], [71, 68, 64, 62, 56, 54], [64, 60, 58, 56, 54], [78, 71, 70, 68, 67, 66, 65, 64, 63, 62, 61], [71, 64, 63, 60, 56], [79, 78, 66, 63, 60, 58], [75, 71, 63, 60, 57], [79, 78, 74, 71, 70, 68, 67, 65, 62], [79, 78, 75, 66, 63, 60], [79, 67, 63, 60], [79, 78, 75, 70, 66, 65, 63], [78, 74, 72, 69, 68, 67, 64], [79, 78, 72, 70, 69, 67, 66], [79, 78, 74, 72, 70, 66, 65], [74, 72, 70, 68, 67, 65], [79, 75, 73, 70, 65, 63], [73, 70, 68, 65], [90, 86, 84, 77, 75, 73, 69], [90, 86, 84, 73, 72, 69], [90, 81, 74, 72, 69], [90, 89, 86, 85, 84, 82, 80, 79, 77, 76], [86, 84, 81, 77, 69], [90, 86, 85, 84, 77, 76, 73], [90, 89, 84, 75, 73], [90, 89, 84, 83, 81, 80, 76], [89, 85, 83, 82, 80, 76], [83, 82, 81, 80, 76], [101, 100, 90, 81, 77], [85, 80, 77], [99, 98, 87, 83, 81, 80], [100, 99, 97, 96, 87, 85, 84, 83], [101, 99, 95, 87, 83, 81], [100, 99, 97, 96, 95, 94, 93, 87], [99, 96, 95, 87, 83], [89, 85, 83], [98, 97, 96, 83], [101, 100, 97, 95, 94, 88], [97, 96, 94, 93, 88], [95, 94, 93, 88], [94, 93, 88], [94, 93, 88], [98, 95, 93, 91], [98, 95, 93, 91], [88], [92, 91], [94], [98], [102], [102], [102], [102], [102], [102], [102], [102], [102], [102], [102], []]
letting durations = [[0], [5, 7, 9], [1, 3, 7], [4, 9, 10], [2, 9, 10], [5, 7, 9], [1, 9, 10], [1, 3, 4], [7, 8, 9], [2, 3, 9], [6, 10, 10], [1, 2, 4], [8, 9, 10], [1, 3, 10], [2, 3, 5], [3, 8, 8], [3, 5, 7], [1, 5, 8], [3, 5, 6], [6, 8, 10], [7, 9, 10], [2, 3, 7], [6, 10, 10], [1, 2, 3], [3, 5, 8], [1, 4, 9], [1, 4, 6], [6, 7, 7], [4, 8, 10], [1, 8, 9], [5, 6, 10], [7, 8, 9], [9, 9, 10], [1, 1, 9], [3, 5, 7], [2, 6, 7], [1, 2, 9], [3, 5, 9], [5, 8, 9], [1, 7, 10], [4, 5, 10], [2, 7, 8], [3, 7, 9], [1, 3, 8], [2, 9, 10], [5, 6, 9], [2, 6, 10], [4, 5, 8], [2, 7, 8], [6, 8, 9], [5, 6, 7], [1, 2, 10], [1, 9, 10], [3, 5, 7], [2, 3, 4], [1, 2, 4], [2, 2, 9], [1, 9, 10], [2, 7, 7], [7, 9, 9], [1, 5, 9], [2, 3, 8], [5, 6, 10], [3, 3, 8], [1, 2, 10], [3, 8, 10], [1, 4, 8], [2, 5, 8], [2, 4, 7], [4, 6, 8], [3, 7, 10], [2, 7, 8], [4, 5, 6], [2, 8, 9], [1, 5, 8], [8, 8, 9], [1, 7, 9], [3, 4, 4], [6, 7, 8], [6, 9, 10], [1, 2, 6], [1, 3, 10], [1, 4, 9], [5, 6, 7], [3, 3, 7], [1, 4, 5], [1, 8, 10], [2, 8, 8], [4, 9, 10], [3, 7, 8], [7, 9, 10], [4, 5, 9], [4, 5, 5], [3, 7, 10], [1, 5, 7], [5, 7, 9], [3, 4, 5], [2, 7, 10], [3, 6, 7], [1, 5, 6], [1, 6, 7], [0]]
letting resourceUsage = [[[0, 0, 0, 0]], [[0, 5, 4, 8], [4, 0, 4, 6], [0, 3, 4, 6]], [[0, 4, 2, 6], [3, 0, 2, 5], [0, 4, 2, 4]], [[4, 0, 6, 7], [4, 0, 6, 3], [0, 2, 5, 3]], [[3, 0, 6, 2], [0, 4, 5, 2], [3, 0, 4, 2]], [[0, 3, 9, 7], [2, 0, 8, 7], [2, 0, 6, 6]], [[0, 5, 3, 6], [3, 0, 2, 4], [3, 0, 2, 3]], [[2, 0, 8, 4], [2, 0, 6, 3], [2, 0, 5, 3]], [[0, 2, 5, 9], [0, 2, 5, 8], [0, 2, 5, 7]], [[5, 0, 5, 7], [5, 0, 5, 6], [0, 2, 5, 6]], [[5, 0, 4, 8], [0, 3, 2, 7], [3, 0, 2, 5]], [[0, 3, 7, 7], [3, 0, 3, 4], [0, 3, 2, 1]], [[0, 4, 5, 9], [1, 0, 5, 7], [0, 3, 3, 6]], [[5, 0, 8, 5], [5, 0, 6, 4], [5, 0, 4, 3]], [[4, 0, 9, 9], [0, 3, 8, 7], [2, 0, 8, 5]], [[5, 0, 7, 8], [3, 0, 5, 7], [0, 2, 4, 5]], [[4, 0, 9, 4], [0, 2, 9, 4], [0, 1, 9, 4]], [[1, 0, 8, 6], [1, 0, 6, 6], [0, 2, 3, 6]], [[4, 0, 10, 6], [0, 3, 9, 4], [3, 0, 8, 3]], [[0, 3, 10, 7], [2, 0, 10, 4], [2, 0, 10, 3]], [[5, 0, 9, 9], [3, 0, 7, 8], [0, 3, 7, 7]], [[2, 0, 9, 8], [0, 3, 9, 4], [2, 0, 8, 2]], [[3, 0, 3, 9], [3, 0, 2, 7], [0, 3, 2, 6]], [[3, 0, 7, 7], [2, 0, 6, 6], [0, 3, 5, 4]], [[4, 0, 2, 7], [3, 0, 2, 4], [0, 2, 1, 2]], [[3, 0, 8, 9], [0, 4, 5, 5], [0, 4, 4, 5]], [[0, 4, 6, 8], [1, 0, 4, 6], [1, 0, 4, 3]], [[0, 3, 8, 7], [2, 0, 8, 5], [0, 3, 8, 5]], [[0, 3, 7, 8], [3, 0, 7, 8], [0, 2, 5, 6]], [[0, 2, 6, 8], [0, 1, 5, 7], [1, 0, 3, 6]], [[0, 4, 6, 7], [0, 4, 4, 7], [1, 0, 3, 7]], [[0, 4, 3, 7], [1, 0, 2, 7], [0, 3, 1, 7]], [[0, 4, 8, 1], [0, 3, 8, 2], [0, 3, 8, 1]], [[0, 2, 4, 2], [2, 0, 3, 2], [1, 0, 1, 2]], [[4, 0, 5, 8], [4, 0, 4, 7], [0, 4, 4, 7]], [[5, 0, 7, 4], [0, 2, 4, 4], [0, 2, 2, 4]], [[0, 5, 8, 6], [3, 0, 8, 5], [3, 0, 7, 5]], [[3, 0, 3, 8], [3, 0, 3, 6], [3, 0, 2, 5]], [[0, 3, 5, 8], [0, 3, 3, 5], [0, 3, 3, 4]], [[3, 0, 9, 5], [0, 1, 3, 4], [0, 1, 1, 2]], [[4, 0, 5, 7], [4, 0, 5, 5], [3, 0, 5, 5]], [[0, 4, 10, 7], [2, 0, 4, 3], [2, 0, 3, 2]], [[5, 0, 3, 7], [0, 3, 2, 6], [0, 3, 1, 6]], [[3, 0, 6, 4], [3, 0, 6, 2], [0, 2, 6, 2]], [[3, 0, 8, 4], [0, 3, 8, 4], [3, 0, 8, 3]], [[0, 4, 2, 8], [0, 2, 2, 7], [0, 1, 2, 7]], [[0, 3, 3, 7], [3, 0, 2, 7], [0, 1, 2, 7]], [[3, 0, 5, 9], [0, 1, 5, 7], [0, 1, 5, 6]], [[0, 1, 5, 10], [2, 0, 5, 5], [2, 0, 3, 2]], [[0, 4, 5, 5], [2, 0, 5, 5], [0, 3, 3, 3]], [[5, 0, 9, 4], [5, 0, 7, 4], [5, 0, 4, 3]], [[0, 5, 8, 5], [0, 4, 5, 4], [0, 3, 4, 4]], [[5, 0, 10, 7], [0, 3, 4, 5], [0, 2, 3, 3]], [[0, 2, 9, 7], [3, 0, 8, 4], [3, 0, 5, 4]], [[0, 1, 9, 4], [0, 1, 6, 3], [2, 0, 4, 2]], [[0, 1, 5, 8], [0, 1, 4, 3], [0, 1, 2, 1]], [[0, 2, 7, 10], [4, 0, 7, 8], [4, 0, 6, 5]], [[0, 2, 5, 9], [0, 2, 5, 6], [0, 2, 2, 5]], [[0, 2, 3, 9], [1, 0, 1, 7], [0, 2, 1, 6]], [[0, 2, 6, 10], [0, 1, 6, 6], [2, 0, 6, 5]], [[0, 5, 6, 7], [0, 4, 5, 6], [0, 3, 4, 4]], [[0, 3, 4, 5], [0, 1, 4, 4], [0, 1, 4, 3]], [[0, 3, 6, 5], [0, 3, 6, 4], [1, 0, 6, 3]], [[0, 2, 4, 5], [3, 0, 4, 3], [0, 2, 4, 3]], [[0, 4, 6, 6], [1, 0, 6, 6], [0, 1, 6, 4]], [[0, 4, 5, 6], [2, 0, 4, 6], [1, 0, 2, 3]], [[0, 2, 4, 7], [0, 2, 3, 5], [1, 0, 3, 5]], [[0, 2, 1, 8], [0, 1, 1, 6], [2, 0, 1, 5]], [[2, 0, 6, 6], [1, 0, 6, 6], [1, 0, 5, 6]], [[2, 0, 4, 4], [2, 0, 3, 3], [1, 0, 2, 2]], [[0, 3, 4, 7], [0, 3, 3, 6], [1, 0, 3, 6]], [[4, 0, 7, 10], [0, 3, 6, 10], [3, 0, 6, 10]], [[3, 0, 5, 5], [0, 2, 5, 2], [0, 2, 5, 1]], [[2, 0, 9, 5], [0, 4, 9, 4], [1, 0, 9, 3]], [[4, 0, 9, 6], [4, 0, 8, 5], [0, 3, 7, 3]], [[4, 0, 8, 3], [0, 3, 6, 2], [0, 3, 5, 1]], [[0, 4, 6, 7], [3, 0, 4, 4], [0, 1, 2, 2]], [[2, 0, 2, 2], [2, 0, 1, 2], [0, 1, 1, 2]], [[4, 0, 5, 10], [0, 3, 5, 7], [0, 3, 3, 7]], [[2, 0, 9, 9], [0, 4, 8, 8], [0, 2, 8, 7]], [[0, 4, 5, 10], [0, 4, 5, 8], [0, 2, 5, 8]], [[0, 2, 7, 6], [3, 0, 6, 5], [3, 0, 5, 5]], [[2, 0, 7, 4], [2, 0, 6, 4], [0, 1, 6, 4]], [[0, 5, 5, 3], [0, 3, 4, 2], [3, 0, 3, 2]], [[4, 0, 5, 7], [0, 2, 5, 7], [2, 0, 4, 7]], [[0, 4, 4, 4], [2, 0, 3, 3], [0, 3, 2, 3]], [[0, 2, 9, 5], [1, 0, 5, 4], [0, 2, 4, 4]], [[0, 1, 2, 8], [3, 0, 2, 7], [0, 1, 2, 3]], [[0, 5, 10, 6], [2, 0, 9, 3], [2, 0, 9, 2]], [[0, 2, 4, 7], [0, 2, 3, 7], [0, 1, 1, 7]], [[0, 4, 8, 3], [0, 2, 5, 3], [4, 0, 5, 2]], [[0, 3, 8, 7], [1, 0, 6, 4], [0, 3, 4, 4]], [[0, 3, 6, 9], [0, 2, 6, 5], [3, 0, 4, 3]], [[0, 4, 9, 4], [2, 0, 6, 2], [2, 0, 6, 1]], [[3, 0, 8, 4], [1, 0, 6, 4], [0, 3, 3, 3]], [[0, 4, 8, 6], [2, 0, 5, 4], [0, 3, 2, 1]], [[5, 0, 2, 9], [0, 2, 2, 7], [5, 0, 2, 6]], [[5, 0, 8, 8], [4, 0, 6, 7], [3, 0, 2, 7]], [[4, 0, 6, 7], [0, 4, 6, 7], [0, 2, 3, 2]], [[3, 0, 7, 1], [3, 0, 6, 1], [3, 0, 2, 1]], [[5, 0, 2, 3], [5, 0, 2, 2], [5, 0, 1, 2]], [[0, 0, 0, 0]]]
